NAME: tsp15_24
COMMENT: 15-tsp problem (Padberg/Rinaldi)
TYPE: TSP
DIMENSION: 15
EDGE_WEIGHT_TYPE : EUC_2D
NODE_COORD_SECTION
1 3 16
2 23 23
3 14 3
4 12 32
5 1 40
6 18 34
7 9 6
8 22 23
9 38 10
10 33 40
11 16 29
12 19 7
13 25 11
14 35 2
15 1 35
